-----------CH14-2.JDBC오라클 커넥션풀-----------------


---------------------------------------------------------------------------------------------
-----------
-----------
-----------
-----------
-----------
-----------
---------------------------------------------------------------------------------------------
-----------
-----------
-----------
-----------
-----------
-----------
---------------------------------------------------------------------------------------------
-----------
-----------
-----------
-----------
-----------
-----------
---------------------------------------------------------------------------------------------
-----------
-----------
-----------
-----------
-----------
-----------
------
------
------
------
------
------
------
------
------
------
------
------








































